c preprocessed version of dimacs_mulsol.i.1, 87 vertices, 1678 edges
p td 87 1678
1 0
2 0
3 0
4 0
0 74
0 63
0 14
0 73
0 71
0 69
0 67
0 13
0 65
0 9
1 2
1 3
1 4
1 5
1 6
1 7
1 8
1 12
1 64
1 66
1 68
1 70
1 72
1 74
1 63
1 14
1 73
1 71
1 69
1 67
1 13
1 65
1 9
1 46
1 48
1 50
1 52
1 54
1 44
1 56
1 55
1 53
1 51
1 49
1 47
1 45
1 42
1 36
1 34
1 43
1 29
1 32
1 30
1 35
1 31
1 37
1 57
1 59
1 39
1 41
1 61
1 60
1 58
1 38
1 40
1 33
77 1
2 3
2 4
2 5
2 6
2 7
2 8
2 12
2 64
2 66
2 68
2 70
2 72
2 74
2 63
2 14
2 73
2 71
2 69
2 67
2 13
2 65
2 9
2 48
2 50
2 52
2 54
2 44
2 56
2 55
2 53
2 51
2 49
2 47
2 45
2 42
2 36
2 34
3 4
3 5
3 6
3 7
3 8
3 64
3 66
3 68
3 70
3 72
3 74
3 63
3 14
3 73
3 71
3 69
3 67
3 13
3 65
3 9
4 5
4 6
4 7
4 8
4 70
4 72
4 74
4 63
4 14
4 73
4 71
4 69
4 67
4 13
4 65
4 9
5 6
5 7
5 8
5 71
5 69
5 67
5 13
5 65
5 9
6 7
6 8
6 67
6 13
6 65
6 9
7 8
7 9
10 9
11 9
12 9
64 9
66 9
68 9
70 9
72 9
74 9
63 9
14 9
73 9
71 9
69 9
67 9
13 9
65 9
62 9
10 11
10 12
10 64
10 66
10 68
10 70
10 72
10 74
10 63
10 14
10 73
10 71
10 69
10 67
10 13
10 65
10 81
10 78
10 79
10 80
11 12
11 64
11 66
11 68
11 70
11 72
11 74
11 63
11 14
11 73
11 71
11 69
11 67
11 13
11 65
11 78
11 79
11 80
11 51
11 49
11 47
11 45
11 42
11 36
11 34
12 13
12 69
12 65
12 67
12 71
12 73
12 14
12 63
12 74
12 72
12 70
12 68
12 66
12 64
62 12
14 13
64 13
13 65
66 13
68 13
70 13
72 13
74 13
63 13
73 13
71 13
69 13
67 13
62 13
15 14
64 14
66 14
68 14
70 14
72 14
74 14
63 14
14 65
14 67
14 69
14 71
14 73
62 14
16 15
17 15
18 15
19 15
20 15
21 15
22 15
15 23
15 24
15 25
15 26
15 27
15 28
15 29
15 33
15 38
15 40
15 43
15 34
15 36
15 42
15 45
15 47
15 49
15 51
15 53
15 55
15 56
15 44
15 54
15 52
15 50
15 48
15 46
15 58
15 60
15 61
15 41
15 39
15 59
15 57
15 37
15 31
15 35
15 30
15 32
15 63
15 74
15 72
15 70
15 68
15 66
15 64
62 15
75 15
16 17
16 18
16 19
16 20
16 21
16 22
16 23
16 24
16 25
16 26
16 27
16 28
16 29
16 33
16 38
16 40
16 43
16 34
16 36
16 42
16 45
16 47
16 49
16 51
16 53
16 55
16 56
16 44
16 54
16 52
16 50
16 48
16 46
16 58
16 60
16 61
16 41
16 39
16 59
16 57
16 37
16 31
16 35
16 30
16 32
16 64
62 16
75 16
77 16
17 18
17 19
17 20
17 21
17 22
17 23
17 24
17 25
17 26
17 27
17 28
17 29
17 33
17 38
17 40
17 43
17 34
17 36
17 42
17 45
17 47
17 49
17 51
17 53
17 55
17 56
17 44
17 54
17 52
17 50
17 48
17 46
17 58
17 60
17 61
17 41
17 39
17 59
17 57
17 37
17 31
17 35
17 30
17 32
17 66
17 64
62 17
75 17
77 17
18 19
18 20
18 21
18 22
18 23
18 24
18 25
18 26
18 27
18 28
18 29
18 33
18 38
18 40
18 43
18 34
18 36
18 42
18 45
18 47
18 49
18 51
18 53
18 55
18 56
18 44
18 54
18 52
18 50
18 48
18 46
18 58
18 60
18 61
18 41
18 39
18 59
18 57
18 37
18 31
18 35
18 30
18 32
18 68
18 66
18 64
62 18
75 18
77 18
19 20
19 21
19 22
19 23
19 24
19 25
19 26
19 27
19 28
19 29
19 33
19 38
19 40
19 43
19 34
19 36
19 42
19 45
19 47
19 49
19 51
19 53
19 55
19 56
19 44
19 54
19 52
19 50
19 48
19 46
19 58
19 60
19 61
19 41
19 39
19 59
19 57
19 37
19 31
19 35
19 30
19 32
19 70
19 68
19 66
19 64
62 19
75 19
77 19
20 21
20 22
20 23
20 24
20 25
20 26
20 27
20 28
20 29
20 33
20 38
20 40
20 43
20 34
20 36
20 42
20 45
20 47
20 49
20 51
20 53
20 55
20 56
20 44
20 54
20 52
20 50
20 48
20 46
20 58
20 60
20 61
20 41
20 39
20 59
20 57
20 37
20 31
20 35
20 30
20 32
20 72
20 70
20 68
20 66
20 64
62 20
75 20
77 20
21 22
21 23
21 24
21 25
21 26
21 27
21 28
21 29
21 33
21 38
21 40
21 43
21 34
21 36
21 42
21 45
21 47
21 49
21 51
21 53
21 55
21 56
21 44
21 54
21 52
21 50
21 48
21 46
21 58
21 60
21 61
21 41
21 39
21 59
21 57
21 37
21 31
21 35
21 30
21 32
21 74
21 72
21 70
21 68
21 66
21 64
62 21
75 21
77 21
22 23
22 24
22 25
22 26
22 27
22 28
22 29
22 33
22 38
22 40
22 43
22 34
22 36
22 42
22 45
22 47
22 49
22 51
22 53
22 55
22 56
22 44
22 54
22 52
22 50
22 48
22 46
22 58
22 60
22 61
22 41
22 39
22 59
22 57
22 37
22 31
22 35
22 30
22 32
22 63
22 74
22 72
22 70
22 68
22 66
22 64
62 22
75 22
23 24
23 25
23 26
23 27
23 28
23 29
23 33
23 38
23 40
23 43
23 34
23 36
23 42
23 45
23 47
23 49
23 51
23 53
23 55
23 56
23 44
23 54
23 52
23 50
23 48
23 46
23 58
23 60
23 61
23 41
23 39
23 59
23 57
23 37
23 31
23 35
23 30
23 32
62 23
75 23
24 25
24 26
24 27
24 28
24 29
24 33
24 38
24 40
24 43
24 34
24 36
24 42
24 45
24 47
24 49
24 51
24 53
24 55
24 56
24 44
24 54
24 52
24 50
24 48
24 46
24 58
24 60
24 61
24 41
24 39
24 59
24 57
24 37
24 31
24 35
24 30
24 32
62 24
75 24
25 26
25 27
25 28
25 29
25 33
25 38
25 40
25 43
25 34
25 36
25 42
25 45
25 47
25 49
25 51
25 53
25 55
25 56
25 44
25 54
25 52
25 50
25 48
25 46
25 58
25 60
25 61
25 41
25 39
25 59
25 57
25 37
25 31
25 35
25 30
25 32
62 25
75 25
26 27
26 28
26 29
26 33
26 38
26 40
26 43
26 34
26 36
26 42
26 45
26 47
26 49
26 51
26 53
26 55
26 56
26 44
26 54
26 52
26 50
26 48
26 46
26 58
26 60
26 61
26 41
26 39
26 59
26 57
26 37
26 31
26 35
26 30
26 32
62 26
75 26
27 28
27 29
27 33
27 38
27 40
27 43
27 34
27 36
27 42
27 45
27 47
27 49
27 51
27 53
27 55
27 56
27 44
27 54
27 52
27 50
27 48
27 46
27 58
27 60
27 61
27 41
27 39
27 59
27 57
27 37
27 31
27 35
27 30
27 32
62 27
75 27
28 29
28 33
28 38
28 40
28 43
28 34
28 36
28 42
28 45
28 47
28 49
28 51
28 53
28 55
28 56
28 44
28 54
28 52
28 50
28 48
28 46
28 58
28 60
28 61
28 41
28 39
28 59
28 57
28 37
28 31
28 35
28 30
28 32
62 28
75 28
29 30
29 37
29 39
29 41
29 50
29 58
29 61
29 52
29 60
29 48
29 44
29 55
29 32
29 54
29 56
29 53
29 51
29 49
29 47
29 45
29 42
29 36
29 34
29 38
29 40
29 33
62 29
75 29
31 30
33 30
38 30
40 30
34 30
36 30
42 30
45 30
35 30
47 30
49 30
51 30
53 30
55 30
56 30
44 30
54 30
52 30
30 32
62 30
75 30
76 30
77 30
31 32
31 35
62 31
75 31
76 31
77 31
33 32
38 32
40 32
34 32
36 32
42 32
45 32
35 32
47 32
49 32
51 32
53 32
55 32
56 32
44 32
54 32
52 32
50 32
48 32
46 32
62 32
75 32
76 32
77 32
33 34
33 37
33 39
33 41
33 50
33 58
33 61
33 52
33 60
33 44
33 55
33 54
33 56
33 53
33 51
33 49
33 47
33 45
33 42
33 36
33 48
62 33
75 33
34 35
38 34
40 34
43 34
34 46
34 48
34 50
34 52
34 54
34 44
34 56
34 55
34 53
34 51
34 49
34 47
34 45
34 42
34 36
34 37
34 57
34 59
34 39
34 41
34 61
34 60
34 58
62 34
75 34
36 35
42 35
45 35
62 35
75 35
76 35
77 35
36 37
38 36
36 39
40 36
36 41
43 36
36 46
36 48
36 50
36 52
36 54
36 44
36 56
36 55
36 53
36 51
36 49
36 47
36 45
36 42
36 57
36 59
36 61
36 60
36 58
62 36
75 36
38 37
40 37
42 37
45 37
47 37
49 37
51 37
53 37
55 37
56 37
44 37
54 37
52 37
50 37
48 37
46 37
58 37
60 37
61 37
41 37
39 37
59 37
57 37
62 37
75 37
38 39
38 41
38 50
38 58
38 61
38 52
38 60
38 44
38 55
38 54
38 56
38 53
38 51
38 49
38 47
38 45
38 42
38 48
62 38
75 38
40 39
42 39
45 39
47 39
49 39
51 39
53 39
55 39
56 39
44 39
54 39
52 39
50 39
48 39
46 39
58 39
60 39
61 39
41 39
39 57
39 59
62 39
75 39
40 41
40 50
40 58
40 61
40 52
40 60
40 44
40 55
40 54
40 56
40 53
40 51
40 49
40 47
40 45
40 42
40 48
62 40
75 40
42 41
45 41
47 41
49 41
51 41
53 41
55 41
56 41
44 41
54 41
52 41
50 41
48 41
46 41
58 41
60 41
61 41
41 57
41 59
62 41
75 41
43 42
42 44
42 46
42 48
42 50
42 52
42 54
42 56
42 55
42 53
42 51
42 49
42 47
42 45
42 57
42 59
42 61
42 60
42 58
62 42
75 42
43 44
43 55
43 54
43 56
43 53
43 51
43 49
43 47
43 45
62 43
75 43
45 44
47 44
49 44
51 44
53 44
55 44
56 44
44 46
44 48
44 50
44 52
44 54
44 57
44 59
44 61
44 60
44 58
62 44
75 44
45 46
45 48
45 50
45 52
45 54
45 56
45 55
45 53
45 51
45 49
45 47
45 57
45 59
45 61
45 60
45 58
62 45
75 45
47 46
49 46
51 46
53 46
55 46
56 46
54 46
52 46
50 46
48 46
46 57
46 59
46 61
46 60
46 58
62 46
75 46
47 48
47 50
47 52
47 54
47 56
47 55
47 53
47 51
47 49
47 57
47 59
47 61
47 60
47 58
62 47
75 47
49 48
51 48
53 48
55 48
56 48
54 48
52 48
50 48
48 57
48 59
48 61
48 60
48 58
62 48
75 48
49 50
49 52
49 54
49 56
49 55
49 53
49 51
49 57
49 59
49 61
49 60
49 58
62 49
75 49
51 50
53 50
55 50
56 50
54 50
52 50
50 57
50 59
50 61
50 60
50 58
62 50
75 50
51 52
51 54
51 56
51 55
51 53
51 57
51 59
51 61
51 60
51 58
62 51
75 51
53 52
55 52
56 52
54 52
52 57
52 59
52 61
52 60
52 58
62 52
75 52
53 54
53 56
53 55
53 57
53 59
53 61
53 60
53 58
62 53
75 53
55 54
56 54
54 57
54 59
54 61
54 60
54 58
62 54
75 54
55 56
55 57
55 59
55 61
55 60
55 58
62 55
75 55
56 57
56 59
56 61
56 60
56 58
62 56
75 56
58 57
60 57
61 57
59 57
62 57
75 57
58 59
58 61
58 60
62 58
75 58
60 59
61 59
62 59
75 59
60 61
62 60
75 60
62 61
75 61
62 63
62 64
62 65
62 66
62 67
62 68
62 69
62 70
62 71
62 72
62 73
62 74
62 75
76 62
77 62
64 63
63 65
66 63
68 63
63 67
70 63
63 69
72 63
63 71
74 63
63 73
64 65
64 67
64 69
64 71
64 73
64 74
64 72
64 70
64 68
64 66
66 65
68 65
70 65
72 65
74 65
73 65
71 65
69 65
67 65
66 67
66 69
66 71
66 73
66 74
66 72
66 70
66 68
68 67
70 67
72 67
74 67
73 67
71 67
69 67
68 69
68 71
68 73
68 74
68 72
68 70
70 69
72 69
74 69
73 69
71 69
70 71
70 73
70 74
70 72
72 71
74 71
73 71
72 73
72 74
74 73
76 75
77 75
76 77
78 79
82 76
82 77
82 86
82 0
82 1
82 2
82 3
82 4
82 5
82 6
82 7
82 8
82 9
82 83
82 84
82 85
82 10
82 11
82 12
82 13
82 14
82 29
82 30
82 32
82 31
82 35
82 34
82 33
82 37
82 38
82 39
82 40
82 41
82 36
82 43
82 44
82 42
82 46
82 45
82 48
82 47
82 50
82 49
82 52
82 51
82 54
82 53
82 56
82 55
82 57
82 58
82 59
82 60
82 61
82 63
82 64
82 65
82 66
82 67
82 68
82 69
82 70
82 71
82 72
82 73
82 74
82 78
82 79
82 80
82 81
82 62
82 75
83 86
83 9
83 10
83 11
83 12
83 64
83 66
83 68
83 70
83 72
83 74
83 63
83 14
83 73
83 71
83 69
83 67
83 13
83 65
83 81
83 78
83 79
83 80
83 52
83 54
83 44
83 56
83 55
83 53
83 51
83 49
83 47
83 45
83 42
83 36
83 34
83 84
83 85
84 86
84 9
84 10
84 81
84 11
84 78
84 79
84 80
84 12
84 85
84 64
84 66
84 68
84 70
84 72
84 74
84 63
84 14
84 73
84 71
84 69
84 67
84 13
84 65
84 56
84 55
84 53
84 51
84 49
84 47
84 45
84 42
84 36
84 34
85 86
85 9
85 10
85 81
85 11
85 78
85 79
85 80
85 12
85 34
85 36
85 42
85 45
85 47
85 49
85 51
85 53
85 64
85 66
85 68
85 70
85 72
85 74
85 63
85 14
85 73
85 71
85 69
85 67
85 13
85 65
85 54
85 44
85 56
85 55
86 0
86 9
86 10
86 11
86 12
86 13
86 14
86 34
86 36
86 42
86 45
86 47
86 49
86 63
86 64
86 65
86 66
86 67
86 68
86 69
86 70
86 71
86 72
86 73
86 74
86 78
86 79
86 80
86 81
